Using license file /home/benedond/gurobi.lic
Using gurobi.env file
Set parameter Threads to value 1
Academic license - for non-commercial use only
Changed value of parameter TimeLimit to 300.0
   Prev: inf  Min: 0.0  Max: inf  Default: inf
Gurobi Optimizer version 9.0.1 build v9.0.1rc0 (linux64)
Optimize a model with 1350 rows, 1275 columns and 5073 nonzeros
Model fingerprint: 0x57f54b98
Variable types: 25 continuous, 1250 integer (1250 binary)
Coefficient statistics:
  Matrix range     [1e+00, 5e+02]
  Objective range  [5e+01, 5e+02]
  Bounds range     [1e+00, 1e+00]
  RHS range        [1e+00, 1e+03]
Presolve removed 629 rows and 628 columns
Presolve time: 0.37s
Presolved: 721 rows, 647 columns, 2557 nonzeros
Variable types: 25 continuous, 622 integer (622 binary)

Root relaxation: objective 4.252000e+03, 209 iterations, 0.00 seconds

    Nodes    |    Current Node    |     Objective Bounds      |     Work
 Expl Unexpl |  Obj  Depth IntInf | Incumbent    BestBd   Gap | It/Node Time

H    0     0                    4252.0000000 6854.00000  61.2%     -    0s
     0     0          -    0      4252.00000 4252.00000  0.00%     -    0s

Explored 0 nodes (487 simplex iterations) in 0.38 seconds
Thread count was 1 (of 4 available processors)

Solution count 1: 4252 

Optimal solution found (tolerance 1.00e-04)
Best objective 4.252000000000e+03, best bound 4.252000000000e+03, gap 0.0000%
